(declare-fun b31 () (_ FloatingPoint 8 24))
(declare-fun b115 () (_ FloatingPoint 8 24))
(declare-fun b106 () (_ FloatingPoint 8 24))
(declare-fun b94 () (_ FloatingPoint 8 24))
(declare-fun b58 () (_ FloatingPoint 8 24))
(declare-fun b109 () (_ FloatingPoint 8 24))
(declare-fun b222 () (_ FloatingPoint 8 24))
(declare-fun b52 () (_ FloatingPoint 8 24))
(declare-fun b13 () (_ FloatingPoint 8 24))
(declare-fun b34 () (_ FloatingPoint 8 24))
(declare-fun b43 () (_ FloatingPoint 8 24))
(declare-fun b112 () (_ FloatingPoint 8 24))
(declare-fun b118 () (_ FloatingPoint 8 24))
(declare-fun b49 () (_ FloatingPoint 8 24))
(declare-fun b82 () (_ FloatingPoint 8 24))
(declare-fun b219 () (_ FloatingPoint 8 24))
(declare-fun b25 () (_ FloatingPoint 8 24))
(declare-fun b67 () (_ FloatingPoint 8 24))
(declare-fun b121 () (_ FloatingPoint 8 24))
(declare-fun b73 () (_ FloatingPoint 8 24))
(declare-fun b11 () (_ FloatingPoint 8 24))
(declare-fun b55 () (_ FloatingPoint 8 24))
(declare-fun b22 () (_ FloatingPoint 8 24))
(declare-fun b28 () (_ FloatingPoint 8 24))
(declare-fun b88 () (_ FloatingPoint 8 24))
(declare-fun b16 () (_ FloatingPoint 8 24))
(declare-fun b127 () (_ FloatingPoint 8 24))
(declare-fun b91 () (_ FloatingPoint 8 24))
(declare-fun b79 () (_ FloatingPoint 8 24))
(declare-fun b61 () (_ FloatingPoint 8 24))
(declare-fun b64 () (_ FloatingPoint 8 24))
(declare-fun b103 () (_ FloatingPoint 8 24))
(declare-fun b46 () (_ FloatingPoint 8 24))
(declare-fun b124 () (_ FloatingPoint 8 24))
(declare-fun b40 () (_ FloatingPoint 8 24))
(declare-fun b131 () (_ FloatingPoint 11 53))
(declare-fun b76 () (_ FloatingPoint 8 24))
(declare-fun b85 () (_ FloatingPoint 8 24))
(declare-fun b37 () (_ FloatingPoint 8 24))
(declare-fun b70 () (_ FloatingPoint 8 24))
(declare-fun b97 () (_ FloatingPoint 8 24))
(declare-fun b19 () (_ FloatingPoint 8 24))
(declare-fun b100 () (_ FloatingPoint 8 24))
(assert (let ((.def_251 (fp.lt b127 b222)))
(let ((.def_249 (fp.lt b219 b127)))
(let ((.def_247 (fp.lt b124 b222)))
(let ((.def_245 (fp.lt b219 b124)))
(let ((.def_243 (fp.lt b121 b222)))
(let ((.def_241 (fp.lt b219 b121)))
(let ((.def_239 (fp.lt b118 b222)))
(let ((.def_237 (fp.lt b219 b118)))
(let ((.def_235 (fp.lt b115 b222)))
(let ((.def_233 (fp.lt b219 b115)))
(let ((.def_231 (fp.lt b112 b222)))
(let ((.def_229 (fp.lt b219 b112)))
(let ((.def_227 (fp.lt b109 b222)))
(let ((.def_225 (fp.lt b219 b109)))
(let ((.def_223 (fp.lt b106 b222)))
(let ((.def_221 (fp.lt b219 b106)))
(let ((.def_219 (fp.lt b103 b222)))
(let ((.def_217 (fp.lt b219 b103)))
(let ((.def_215 (fp.lt b100 b222)))
(let ((.def_213 (fp.lt b219 b100)))
(let ((.def_211 (fp.lt b97 b222)))
(let ((.def_209 (fp.lt b219 b97)))
(let ((.def_207 (fp.lt b94 b222)))
(let ((.def_205 (fp.lt b219 b94)))
(let ((.def_203 (fp.lt b91 b222)))
(let ((.def_201 (fp.lt b219 b91)))
(let ((.def_199 (fp.lt b88 b222)))
(let ((.def_197 (fp.lt b219 b88)))
(let ((.def_195 (fp.lt b85 b222)))
(let ((.def_193 (fp.lt b219 b85)))
(let ((.def_191 (fp.lt b82 b222)))
(let ((.def_189 (fp.lt b219 b82)))
(let ((.def_187 (fp.lt b79 b222)))
(let ((.def_185 (fp.lt b219 b79)))
(let ((.def_183 (fp.lt b76 b222)))
(let ((.def_181 (fp.lt b219 b76)))
(let ((.def_179 (fp.lt b73 b222)))
(let ((.def_177 (fp.lt b219 b73)))
(let ((.def_175 (fp.lt b70 b222)))
(let ((.def_173 (fp.lt b219 b70)))
(let ((.def_171 (fp.lt b67 b222)))
(let ((.def_169 (fp.lt b219 b67)))
(let ((.def_167 (fp.lt b64 b222)))
(let ((.def_165 (fp.lt b219 b64)))
(let ((.def_163 (fp.lt b61 b222)))
(let ((.def_161 (fp.lt b219 b61)))
(let ((.def_159 (fp.lt b58 b222)))
(let ((.def_157 (fp.lt b219 b58)))
(let ((.def_155 (fp.lt b55 b222)))
(let ((.def_153 (fp.lt b219 b55)))
(let ((.def_151 (fp.lt b52 b222)))
(let ((.def_149 (fp.lt b219 b52)))
(let ((.def_147 (fp.lt b49 b222)))
(let ((.def_145 (fp.lt b219 b49)))
(let ((.def_143 (fp.lt b46 b222)))
(let ((.def_141 (fp.lt b219 b46)))
(let ((.def_139 (fp.lt b43 b222)))
(let ((.def_137 (fp.lt b219 b43)))
(let ((.def_135 (fp.lt b40 b222)))
(let ((.def_133 (fp.lt b219 b40)))
(let ((.def_131 (fp.lt b37 b222)))
(let ((.def_129 (fp.lt b219 b37)))
(let ((.def_127 (fp.lt b34 b222)))
(let ((.def_125 (fp.lt b219 b34)))
(let ((.def_123 (fp.lt b31 b222)))
(let ((.def_121 (fp.lt b219 b31)))
(let ((.def_119 (fp.lt b28 b222)))
(let ((.def_117 (fp.lt b219 b28)))
(let ((.def_115 (fp.lt b25 b222)))
(let ((.def_113 (fp.lt b219 b25)))
(let ((.def_111 (fp.lt b22 b222)))
(let ((.def_109 (fp.lt b219 b22)))
(let ((.def_107 (fp.lt b19 b222)))
(let ((.def_105 (fp.lt b219 b19)))
(let ((.def_103 (fp.lt b16 b222)))
(let ((.def_101 (fp.lt b219 b16)))
(let ((.def_99 (fp.lt b13 b222)))
(let ((.def_97 (fp.lt b219 b13)))
(let ((.def_95 (fp.lt b11 b222)))
(let ((.def_13 (fp.mul RNE b11 b13)))
(let ((.def_15 (fp.mul RNE .def_13 b16)))
(let ((.def_17 (fp.mul RNE .def_15 b19)))
(let ((.def_19 (fp.mul RNE .def_17 b22)))
(let ((.def_21 (fp.mul RNE .def_19 b25)))
(let ((.def_23 (fp.mul RNE .def_21 b28)))
(let ((.def_25 (fp.mul RNE .def_23 b31)))
(let ((.def_27 (fp.mul RNE .def_25 b34)))
(let ((.def_29 (fp.mul RNE .def_27 b37)))
(let ((.def_31 (fp.mul RNE .def_29 b40)))
(let ((.def_33 (fp.mul RNE .def_31 b43)))
(let ((.def_35 (fp.mul RNE .def_33 b46)))
(let ((.def_37 (fp.mul RNE .def_35 b49)))
(let ((.def_39 (fp.mul RNE .def_37 b52)))
(let ((.def_41 (fp.mul RNE .def_39 b55)))
(let ((.def_43 (fp.mul RNE .def_41 b58)))
(let ((.def_45 (fp.mul RNE .def_43 b61)))
(let ((.def_47 (fp.mul RNE .def_45 b64)))
(let ((.def_49 (fp.mul RNE .def_47 b67)))
(let ((.def_51 (fp.mul RNE .def_49 b70)))
(let ((.def_53 (fp.mul RNE .def_51 b73)))
(let ((.def_55 (fp.mul RNE .def_53 b76)))
(let ((.def_57 (fp.mul RNE .def_55 b79)))
(let ((.def_59 (fp.mul RNE .def_57 b82)))
(let ((.def_61 (fp.mul RNE .def_59 b85)))
(let ((.def_63 (fp.mul RNE .def_61 b88)))
(let ((.def_65 (fp.mul RNE .def_63 b91)))
(let ((.def_67 (fp.mul RNE .def_65 b94)))
(let ((.def_69 (fp.mul RNE .def_67 b97)))
(let ((.def_71 (fp.mul RNE .def_69 b100)))
(let ((.def_73 (fp.mul RNE .def_71 b103)))
(let ((.def_75 (fp.mul RNE .def_73 b106)))
(let ((.def_77 (fp.mul RNE .def_75 b109)))
(let ((.def_79 (fp.mul RNE .def_77 b112)))
(let ((.def_81 (fp.mul RNE .def_79 b115)))
(let ((.def_83 (fp.mul RNE .def_81 b118)))
(let ((.def_85 (fp.mul RNE .def_83 b121)))
(let ((.def_87 (fp.mul RNE .def_85 b124)))
(let ((.def_89 (fp.mul RNE .def_87 b127)))
(let ((.def_90 ((_ to_fp 11 53) RNE .def_89)))
(let ((.def_92 (fp.lt b131 .def_90)))
(let ((.def_11 (fp.lt b219 b11)))
(let ((.def_93 (and .def_11 .def_92)))
(let ((.def_96 (and .def_93 .def_95)))
(let ((.def_98 (and .def_96 .def_97)))
(let ((.def_100 (and .def_98 .def_99)))
(let ((.def_102 (and .def_100 .def_101)))
(let ((.def_104 (and .def_102 .def_103)))
(let ((.def_106 (and .def_104 .def_105)))
(let ((.def_108 (and .def_106 .def_107)))
(let ((.def_110 (and .def_108 .def_109)))
(let ((.def_112 (and .def_110 .def_111)))
(let ((.def_114 (and .def_112 .def_113)))
(let ((.def_116 (and .def_114 .def_115)))
(let ((.def_118 (and .def_116 .def_117)))
(let ((.def_120 (and .def_118 .def_119)))
(let ((.def_122 (and .def_120 .def_121)))
(let ((.def_124 (and .def_122 .def_123)))
(let ((.def_126 (and .def_124 .def_125)))
(let ((.def_128 (and .def_126 .def_127)))
(let ((.def_130 (and .def_128 .def_129)))
(let ((.def_132 (and .def_130 .def_131)))
(let ((.def_134 (and .def_132 .def_133)))
(let ((.def_136 (and .def_134 .def_135)))
(let ((.def_138 (and .def_136 .def_137)))
(let ((.def_140 (and .def_138 .def_139)))
(let ((.def_142 (and .def_140 .def_141)))
(let ((.def_144 (and .def_142 .def_143)))
(let ((.def_146 (and .def_144 .def_145)))
(let ((.def_148 (and .def_146 .def_147)))
(let ((.def_150 (and .def_148 .def_149)))
(let ((.def_152 (and .def_150 .def_151)))
(let ((.def_154 (and .def_152 .def_153)))
(let ((.def_156 (and .def_154 .def_155)))
(let ((.def_158 (and .def_156 .def_157)))
(let ((.def_160 (and .def_158 .def_159)))
(let ((.def_162 (and .def_160 .def_161)))
(let ((.def_164 (and .def_162 .def_163)))
(let ((.def_166 (and .def_164 .def_165)))
(let ((.def_168 (and .def_166 .def_167)))
(let ((.def_170 (and .def_168 .def_169)))
(let ((.def_172 (and .def_170 .def_171)))
(let ((.def_174 (and .def_172 .def_173)))
(let ((.def_176 (and .def_174 .def_175)))
(let ((.def_178 (and .def_176 .def_177)))
(let ((.def_180 (and .def_178 .def_179)))
(let ((.def_182 (and .def_180 .def_181)))
(let ((.def_184 (and .def_182 .def_183)))
(let ((.def_186 (and .def_184 .def_185)))
(let ((.def_188 (and .def_186 .def_187)))
(let ((.def_190 (and .def_188 .def_189)))
(let ((.def_192 (and .def_190 .def_191)))
(let ((.def_194 (and .def_192 .def_193)))
(let ((.def_196 (and .def_194 .def_195)))
(let ((.def_198 (and .def_196 .def_197)))
(let ((.def_200 (and .def_198 .def_199)))
(let ((.def_202 (and .def_200 .def_201)))
(let ((.def_204 (and .def_202 .def_203)))
(let ((.def_206 (and .def_204 .def_205)))
(let ((.def_208 (and .def_206 .def_207)))
(let ((.def_210 (and .def_208 .def_209)))
(let ((.def_212 (and .def_210 .def_211)))
(let ((.def_214 (and .def_212 .def_213)))
(let ((.def_216 (and .def_214 .def_215)))
(let ((.def_218 (and .def_216 .def_217)))
(let ((.def_220 (and .def_218 .def_219)))
(let ((.def_222 (and .def_220 .def_221)))
(let ((.def_224 (and .def_222 .def_223)))
(let ((.def_226 (and .def_224 .def_225)))
(let ((.def_228 (and .def_226 .def_227)))
(let ((.def_230 (and .def_228 .def_229)))
(let ((.def_232 (and .def_230 .def_231)))
(let ((.def_234 (and .def_232 .def_233)))
(let ((.def_236 (and .def_234 .def_235)))
(let ((.def_238 (and .def_236 .def_237)))
(let ((.def_240 (and .def_238 .def_239)))
(let ((.def_242 (and .def_240 .def_241)))
(let ((.def_244 (and .def_242 .def_243)))
(let ((.def_246 (and .def_244 .def_245)))
(let ((.def_248 (and .def_246 .def_247)))
(let ((.def_250 (and .def_248 .def_249)))
(let ((.def_252 (and .def_250 .def_251)))
.def_252))))))))))))))))))))))))))))))))))))))))))))))))))))))))))))))))))))))))))))))))))))))))))))))))))))))))))))))))))))))))))))))))))))))))))))))))))))))))))))))))))))))))))))))))))))))))))))))))))))))))))
(check-sat)
